150 576502796
93 140 59 32 96 94 117 40 19 127 141 90 28 7 111 122 63 143 105 42 55 108 100 39 37 16 73 89 99 71 115 68 62 2 14 84 60 92 15 74 98 91 110 35 43 1 44 104 26 56 5 66 85 70 45 21 51 132 137 22 107 50 116 11 83 129 106 86 64 65 49 79 88 114 126 77 69 47 97 144 6 20 125 113 30 147 103 61 58 133 4 25 136 112 149 67 18 130 76 52 109 128 3 139 87 53 10 24 121 54 12 82 41 75 95 34 148 27 102 57 80 118 9 31 81 134 135 123 142 146 17 46 8 131 23 101 150 13 138 78 120 72 124 29 145 38 36 119 33 48 
